c "822352.clq"
p edge 200 784
e 1 5
e 1 6
e 1 7
e 1 13
e 1 52
e 1 64
e 1 86
e 1 105
e 1 115
e 1 153
e 1 166
e 2 5
e 2 6
e 2 14
e 2 22
e 2 30
e 2 42
e 2 48
e 2 70
e 2 96
e 2 106
e 2 120
e 2 148
e 2 149
e 2 196
e 3 5
e 3 6
e 3 7
e 3 8
e 3 9
e 3 10
e 3 13
e 3 14
e 3 15
e 3 17
e 3 25
e 3 27
e 3 28
e 3 29
e 3 30
e 3 53
e 3 73
e 3 79
e 3 90
e 3 99
e 3 101
e 3 116
e 3 136
e 3 145
e 3 164
e 3 166
e 3 197
e 4 5
e 4 20
e 4 102
e 4 106
e 5 6
e 5 7
e 5 8
e 5 9
e 5 10
e 5 11
e 5 12
e 5 13
e 5 14
e 5 15
e 5 17
e 5 19
e 5 20
e 5 21
e 5 22
e 5 23
e 5 26
e 5 27
e 5 30
e 5 32
e 5 35
e 5 36
e 5 38
e 5 41
e 5 44
e 5 45
e 5 46
e 5 48
e 5 49
e 5 50
e 5 54
e 5 56
e 5 59
e 5 62
e 5 63
e 5 65
e 5 66
e 5 68
e 5 71
e 5 75
e 5 77
e 5 83
e 5 84
e 5 85
e 5 89
e 5 90
e 5 92
e 5 93
e 5 94
e 5 100
e 5 108
e 5 112
e 5 114
e 5 121
e 5 122
e 5 123
e 5 127
e 5 129
e 5 144
e 5 149
e 5 151
e 5 154
e 5 159
e 5 167
e 5 172
e 5 179
e 5 180
e 5 188
e 6 7
e 6 8
e 6 9
e 6 10
e 6 11
e 6 15
e 6 16
e 6 18
e 6 19
e 6 22
e 6 23
e 6 24
e 6 29
e 6 35
e 6 39
e 6 45
e 6 47
e 6 49
e 6 61
e 6 62
e 6 64
e 6 68
e 6 71
e 6 75
e 6 87
e 6 97
e 6 127
e 6 131
e 6 138
e 6 140
e 6 143
e 6 146
e 6 164
e 6 165
e 6 175
e 6 176
e 6 177
e 6 191
e 6 193
e 7 8
e 7 9
e 7 11
e 7 12
e 7 15
e 7 16
e 7 18
e 7 31
e 7 32
e 7 44
e 7 52
e 7 53
e 7 55
e 7 65
e 7 74
e 7 94
e 7 104
e 7 112
e 7 117
e 7 133
e 7 134
e 7 138
e 7 139
e 7 145
e 7 156
e 7 173
e 7 189
e 7 200
e 8 10
e 8 11
e 8 12
e 8 17
e 8 19
e 8 21
e 8 34
e 8 37
e 8 42
e 8 56
e 8 61
e 8 109
e 8 113
e 8 118
e 8 164
e 8 188
e 9 18
e 9 24
e 9 28
e 9 45
e 9 49
e 9 70
e 9 91
e 9 95
e 9 104
e 9 109
e 9 122
e 9 198
e 10 12
e 10 19
e 10 24
e 10 29
e 10 38
e 10 57
e 10 80
e 10 88
e 10 101
e 10 107
e 10 111
e 10 133
e 10 177
e 10 182
e 10 186
e 10 188
e 11 30
e 11 40
e 11 51
e 11 63
e 11 76
e 11 95
e 11 96
e 11 107
e 11 110
e 11 146
e 12 13
e 12 17
e 12 25
e 12 31
e 12 33
e 12 36
e 12 37
e 12 38
e 12 65
e 12 69
e 12 72
e 12 78
e 12 83
e 12 108
e 12 128
e 12 141
e 12 154
e 12 173
e 12 178
e 13 14
e 13 16
e 13 25
e 13 36
e 13 40
e 13 43
e 13 49
e 13 86
e 13 109
e 13 128
e 13 132
e 13 157
e 13 172
e 13 183
e 14 16
e 14 33
e 14 34
e 14 41
e 14 46
e 14 50
e 14 55
e 14 56
e 14 66
e 14 77
e 14 84
e 14 86
e 14 119
e 14 121
e 14 144
e 14 169
e 14 200
e 15 18
e 15 20
e 15 21
e 15 41
e 15 43
e 15 50
e 15 54
e 15 61
e 15 62
e 15 64
e 15 87
e 15 94
e 15 97
e 15 100
e 15 103
e 15 104
e 15 105
e 15 114
e 15 128
e 16 48
e 16 56
e 16 58
e 16 78
e 16 86
e 16 102
e 16 116
e 16 136
e 16 189
e 17 20
e 17 22
e 17 28
e 17 29
e 17 39
e 17 57
e 17 61
e 17 74
e 18 21
e 18 23
e 18 26
e 18 28
e 18 32
e 18 33
e 18 34
e 18 35
e 18 39
e 18 69
e 18 72
e 18 83
e 18 99
e 18 118
e 18 129
e 18 154
e 19 23
e 19 25
e 19 27
e 19 35
e 19 39
e 19 50
e 19 58
e 19 111
e 19 132
e 19 144
e 19 155
e 19 163
e 19 174
e 19 194
e 20 38
e 20 42
e 20 46
e 20 55
e 20 60
e 20 74
e 20 75
e 20 89
e 20 92
e 20 119
e 20 120
e 20 126
e 20 129
e 20 134
e 20 139
e 20 160
e 20 163
e 20 165
e 21 97
e 21 115
e 21 131
e 21 151
e 21 193
e 22 24
e 22 36
e 22 46
e 22 54
e 22 70
e 22 100
e 22 110
e 22 118
e 22 142
e 22 152
e 22 162
e 23 26
e 23 37
e 23 52
e 23 72
e 23 81
e 23 87
e 23 88
e 23 108
e 23 158
e 24 31
e 24 37
e 24 41
e 24 64
e 24 82
e 24 190
e 25 26
e 25 27
e 25 34
e 25 45
e 25 47
e 25 52
e 25 55
e 25 57
e 25 58
e 25 66
e 25 68
e 25 71
e 25 74
e 25 111
e 25 116
e 25 139
e 25 157
e 25 163
e 25 168
e 25 182
e 25 196
e 26 33
e 26 60
e 26 63
e 26 114
e 26 151
e 26 171
e 26 199
e 27 31
e 27 59
e 27 93
e 27 98
e 27 161
e 28 42
e 28 43
e 28 44
e 28 60
e 28 106
e 28 125
e 30 51
e 30 161
e 31 32
e 31 40
e 31 57
e 31 59
e 31 70
e 31 165
e 31 194
e 32 48
e 32 51
e 32 87
e 32 148
e 32 152
e 32 174
e 32 192
e 33 53
e 33 71
e 33 88
e 33 96
e 33 105
e 33 107
e 33 137
e 33 142
e 33 181
e 33 197
e 34 66
e 34 69
e 34 84
e 34 108
e 34 147
e 34 160
e 35 40
e 35 82
e 35 119
e 35 167
e 35 186
e 36 47
e 36 53
e 36 79
e 36 85
e 36 95
e 36 97
e 36 150
e 36 170
e 36 190
e 37 43
e 37 81
e 37 85
e 38 44
e 38 47
e 38 51
e 38 68
e 38 72
e 38 131
e 38 135
e 38 187
e 39 73
e 39 111
e 39 169
e 40 117
e 40 190
e 41 173
e 41 192
e 42 67
e 42 76
e 42 93
e 42 155
e 42 156
e 42 159
e 42 165
e 42 200
e 44 114
e 44 131
e 44 132
e 44 184
e 45 117
e 46 58
e 46 92
e 46 98
e 46 110
e 46 130
e 46 168
e 46 186
e 46 188
e 46 194
e 47 113
e 48 59
e 48 76
e 48 79
e 48 149
e 48 176
e 48 179
e 49 67
e 49 82
e 50 99
e 50 175
e 51 124
e 52 73
e 52 91
e 52 119
e 53 54
e 53 90
e 53 125
e 53 145
e 53 181
e 54 60
e 54 63
e 54 65
e 54 84
e 54 90
e 54 118
e 54 120
e 54 135
e 54 140
e 54 182
e 54 183
e 55 136
e 55 184
e 56 75
e 56 92
e 56 107
e 56 138
e 56 142
e 56 191
e 57 67
e 57 69
e 57 81
e 57 104
e 57 130
e 57 155
e 57 181
e 58 76
e 58 78
e 58 82
e 58 102
e 58 113
e 58 124
e 58 142
e 58 158
e 58 160
e 59 62
e 59 89
e 59 93
e 59 117
e 59 122
e 59 146
e 59 155
e 59 195
e 60 102
e 60 112
e 61 67
e 61 73
e 61 80
e 61 101
e 61 132
e 61 156
e 61 166
e 62 135
e 62 144
e 62 147
e 65 141
e 65 150
e 65 177
e 65 193
e 65 194
e 66 81
e 66 103
e 66 196
e 67 85
e 67 101
e 67 113
e 68 126
e 69 115
e 70 77
e 70 79
e 71 112
e 71 121
e 71 135
e 71 175
e 72 173
e 73 96
e 73 123
e 73 147
e 74 77
e 74 88
e 74 89
e 74 177
e 74 187
e 75 78
e 75 126
e 75 156
e 76 98
e 76 120
e 76 129
e 76 141
e 76 184
e 76 199
e 77 83
e 77 122
e 77 175
e 78 80
e 78 105
e 78 109
e 78 150
e 78 162
e 79 80
e 79 124
e 79 130
e 79 174
e 80 91
e 80 127
e 80 139
e 80 140
e 80 153
e 80 185
e 81 100
e 81 143
e 83 121
e 83 154
e 83 167
e 83 195
e 84 134
e 84 140
e 84 152
e 84 159
e 84 182
e 86 143
e 87 134
e 88 91
e 88 190
e 89 110
e 89 185
e 90 158
e 91 95
e 91 130
e 92 176
e 93 94
e 94 161
e 95 141
e 95 170
e 95 196
e 97 98
e 97 137
e 98 99
e 98 103
e 98 123
e 98 124
e 98 178
e 98 183
e 98 198
e 99 125
e 99 127
e 99 169
e 99 199
e 100 103
e 100 126
e 100 133
e 100 160
e 100 178
e 101 147
e 102 106
e 102 137
e 104 123
e 105 128
e 108 146
e 108 180
e 108 199
e 109 159
e 109 195
e 110 115
e 110 158
e 111 116
e 112 125
e 112 148
e 112 163
e 112 172
e 114 143
e 114 145
e 114 149
e 114 176
e 116 179
e 116 187
e 116 191
e 117 171
e 117 185
e 120 161
e 121 153
e 121 171
e 123 169
e 123 180
e 124 136
e 124 162
e 124 174
e 126 133
e 126 137
e 126 150
e 126 167
e 126 171
e 126 200
e 127 197
e 128 179
e 128 192
e 132 170
e 134 189
e 135 152
e 135 184
e 135 192
e 137 138
e 139 181
e 140 197
e 141 148
e 142 153
e 143 166
e 147 180
e 148 151
e 148 162
e 148 168
e 149 170
e 151 164
e 151 183
e 153 157
e 153 178
e 155 157
e 162 172
e 163 168
e 165 193
e 166 189
e 175 186
e 177 187
e 179 195
e 179 198
e 180 185
e 184 191
e 184 198
